NAME : kroB150.tour
COMMENT : Optimum tour for kroB150.tsp (Length 26130)
TYPE : TOUR
DIMENSION : 150
TOUR_SECTION
26
61
132
32
117
24
142
46
125
137
53
1
85
40
12
116
4
60
140
115
77
80
147
65
130
107
27
15
13
79
110
20
64
42
55
67
31
47
104
149
6
54
134
75
22
112
8
106
17
25
90
34
58
88
148
98
109
145
114
108
113
138
62
83
126
72
124
71
38
39
28
101
56
119
5
43
86
133
50
95
91
123
94
129
131
139
121
76
111
70
102
23
35
2
68
30
21
122
89
41
59
118
73
3
69
74
57
36
100
33
45
81
136
97
144
96
87
150
52
11
84
48
103
128
44
66
105
19
92
10
99
141
14
143
93
49
18
29
37
120
16
63
51
127
135
146
9
78
82
7
-1
EOF
